(set-logic QF_BV)

(declare-const __ESBMC_ptr_obj_start_0 (_ BitVec 64))

(declare-const __ESBMC_ptr_obj_end_0 (_ BitVec 64))

(declare-const __ESBMC_ptr_obj_start_1 (_ BitVec 64))

(declare-const __ESBMC_ptr_obj_end_1 (_ BitVec 64))

(declare-const |smt_conv::__ESBMC_ptr_addr_range_0..start0| (_ BitVec 64))

(declare-const |smt_conv::__ESBMC_ptr_addr_range_0..end0| (_ BitVec 64))

(declare-const |smt_conv::__ESBMC_ptr_addr_range_1..start0| (_ BitVec 64))

(declare-const |smt_conv::__ESBMC_ptr_addr_range_1..end0| (_ BitVec 64))

(declare-const |smt_conv::smt_conv::collate_array_vals::3..start0| (_ BitVec 64))

(declare-const |smt_conv::smt_conv::collate_array_vals::3..end0| (_ BitVec 64))

(declare-const |smt_conv::smt_conv::collate_array_vals::4..start0| (_ BitVec 64))

(declare-const |smt_conv::smt_conv::collate_array_vals::4..end0| (_ BitVec 64))

(declare-const |smt_conv::smt_conv::collate_array_vals::7..start0| (_ BitVec 64))

(declare-const |smt_conv::smt_conv::collate_array_vals::7..end0| (_ BitVec 64))

(declare-const |c:@F@main::$tmp::return_value$___VERIFIER_nondet_int$1?1!0&0#1| (_ BitVec 32))

(declare-const |nondet$symex::nondet16| (_ BitVec 32))

(declare-const |c:LeikeHeizmann-WST2014-Ex9.c@238@F@main@x?1!0&0#1| (_ BitVec 32))

(declare-const |goto_symex::guard?0!0&0#1| (_ BitVec 1))

(declare-const |c:LeikeHeizmann-WST2014-Ex9.c@238@F@main@x?1!0&0#2| (_ BitVec 32))

(declare-const |goto_symex::guard?0!0&0#2| (_ BitVec 1))

(declare-const |c:LeikeHeizmann-WST2014-Ex9.c@238@F@main@x?1!0&0#3| (_ BitVec 32))

(declare-const |goto_symex::guard?0!0&0#3| (_ BitVec 1))

(declare-const |c:LeikeHeizmann-WST2014-Ex9.c@238@F@main@x?1!0&0#4| (_ BitVec 32))

(declare-const |goto_symex::guard?0!0&0#4| (_ BitVec 1))

(declare-const |c:LeikeHeizmann-WST2014-Ex9.c@238@F@main@x?1!0&0#5| (_ BitVec 32))

(declare-const |goto_symex::guard?0!0&0#5| (_ BitVec 1))

(declare-const |c:LeikeHeizmann-WST2014-Ex9.c@238@F@main@x?1!0&0#6| (_ BitVec 32))

(declare-const |goto_symex::guard?0!0&0#6| (_ BitVec 1))

(declare-const |c:LeikeHeizmann-WST2014-Ex9.c@238@F@main@x?1!0&0#7| (_ BitVec 32))

(declare-const |goto_symex::guard?0!0&0#7| (_ BitVec 1))

(declare-const |c:LeikeHeizmann-WST2014-Ex9.c@238@F@main@x?1!0&0#8| (_ BitVec 32))

(declare-const |goto_symex::guard?0!0&0#8| (_ BitVec 1))

(declare-const |c:LeikeHeizmann-WST2014-Ex9.c@238@F@main@x?1!0&0#9| (_ BitVec 32))

(declare-const |goto_symex::guard?0!0&0#9| (_ BitVec 1))

(declare-const |c:LeikeHeizmann-WST2014-Ex9.c@238@F@main@x?1!0&0#10| (_ BitVec 32))

(declare-const |goto_symex::guard?0!0&0#10| (_ BitVec 1))

(declare-const |c:LeikeHeizmann-WST2014-Ex9.c@238@F@main@x?1!0&0#11| (_ BitVec 32))

(declare-const |goto_symex::guard?0!0&0#11| (_ BitVec 1))

(declare-const |c:LeikeHeizmann-WST2014-Ex9.c@238@F@main@x?1!0&0#12| (_ BitVec 32))

(declare-const |goto_symex::guard?0!0&0#12| (_ BitVec 1))

(declare-const |c:LeikeHeizmann-WST2014-Ex9.c@238@F@main@x?1!0&0#13| (_ BitVec 32))

(declare-const |goto_symex::guard?0!0&0#13| (_ BitVec 1))

(declare-const |c:LeikeHeizmann-WST2014-Ex9.c@238@F@main@x?1!0&0#14| (_ BitVec 32))

(declare-const |goto_symex::guard?0!0&0#14| (_ BitVec 1))

(declare-const |c:LeikeHeizmann-WST2014-Ex9.c@238@F@main@x?1!0&0#15| (_ BitVec 32))

(declare-const |goto_symex::guard?0!0&0#15| (_ BitVec 1))

(declare-const |c:LeikeHeizmann-WST2014-Ex9.c@238@F@main@x?1!0&0#16| (_ BitVec 32))

(declare-const |goto_symex::guard?0!0&0#16| (_ BitVec 1))

(declare-const |c:LeikeHeizmann-WST2014-Ex9.c@238@F@main@x?1!0&0#17| (_ BitVec 32))

(declare-const |goto_symex::guard?0!0&0#17| (_ BitVec 1))

(declare-const |execution_statet::guard_exec?0!0| (_ BitVec 1))

(define-fun $e1 () (_ BitVec 1) 

 ((_ extract 31 31) |c:LeikeHeizmann-WST2014-Ex9.c@238@F@main@x?1!0&0#1|))

(define-fun $e2 () (_ BitVec 32) 

 (concat #b0 

  (ite 

   (= #b1 $e1) 

   ((_ extract 31 1) 

    (bvadd 

     (bvnot |c:LeikeHeizmann-WST2014-Ex9.c@238@F@main@x?1!0&0#1|) #b00000000000000000000000000000001)) 

   ((_ extract 31 1) |c:LeikeHeizmann-WST2014-Ex9.c@238@F@main@x?1!0&0#1|))))

(define-fun $e3 () (_ BitVec 1) 

 ((_ extract 31 31) |c:LeikeHeizmann-WST2014-Ex9.c@238@F@main@x?1!0&0#2|))

(define-fun $e4 () (_ BitVec 32) 

 (concat #b0 

  (ite 

   (= #b1 $e3) 

   ((_ extract 31 1) 

    (bvadd 

     (bvnot |c:LeikeHeizmann-WST2014-Ex9.c@238@F@main@x?1!0&0#2|) #b00000000000000000000000000000001)) 

   ((_ extract 31 1) |c:LeikeHeizmann-WST2014-Ex9.c@238@F@main@x?1!0&0#2|))))

(define-fun $e5 () (_ BitVec 1) 

 ((_ extract 31 31) |c:LeikeHeizmann-WST2014-Ex9.c@238@F@main@x?1!0&0#3|))

(define-fun $e6 () (_ BitVec 32) 

 (concat #b0 

  (ite 

   (= #b1 $e5) 

   ((_ extract 31 1) 

    (bvadd #b00000000000000000000000000000001 

     (bvnot |c:LeikeHeizmann-WST2014-Ex9.c@238@F@main@x?1!0&0#3|))) 

   ((_ extract 31 1) |c:LeikeHeizmann-WST2014-Ex9.c@238@F@main@x?1!0&0#3|))))

(define-fun $e7 () (_ BitVec 1) 

 ((_ extract 31 31) |c:LeikeHeizmann-WST2014-Ex9.c@238@F@main@x?1!0&0#4|))

(define-fun $e8 () (_ BitVec 32) 

 (concat #b0 

  (ite 

   (= #b1 $e7) 

   ((_ extract 31 1) 

    (bvadd #b00000000000000000000000000000001 

     (bvnot |c:LeikeHeizmann-WST2014-Ex9.c@238@F@main@x?1!0&0#4|))) 

   ((_ extract 31 1) |c:LeikeHeizmann-WST2014-Ex9.c@238@F@main@x?1!0&0#4|))))

(define-fun $e9 () (_ BitVec 1) 

 ((_ extract 31 31) |c:LeikeHeizmann-WST2014-Ex9.c@238@F@main@x?1!0&0#5|))

(define-fun $e10 () (_ BitVec 32) 

 (concat #b0 

  (ite 

   (= #b1 $e9) 

   ((_ extract 31 1) 

    (bvadd #b00000000000000000000000000000001 

     (bvnot |c:LeikeHeizmann-WST2014-Ex9.c@238@F@main@x?1!0&0#5|))) 

   ((_ extract 31 1) |c:LeikeHeizmann-WST2014-Ex9.c@238@F@main@x?1!0&0#5|))))

(define-fun $e11 () (_ BitVec 1) 

 ((_ extract 31 31) |c:LeikeHeizmann-WST2014-Ex9.c@238@F@main@x?1!0&0#6|))

(define-fun $e12 () (_ BitVec 32) 

 (concat #b0 

  (ite 

   (= #b1 $e11) 

   ((_ extract 31 1) 

    (bvadd #b00000000000000000000000000000001 

     (bvnot |c:LeikeHeizmann-WST2014-Ex9.c@238@F@main@x?1!0&0#6|))) 

   ((_ extract 31 1) |c:LeikeHeizmann-WST2014-Ex9.c@238@F@main@x?1!0&0#6|))))

(define-fun $e13 () (_ BitVec 1) 

 ((_ extract 31 31) |c:LeikeHeizmann-WST2014-Ex9.c@238@F@main@x?1!0&0#7|))

(define-fun $e14 () (_ BitVec 32) 

 (concat #b0 

  (ite 

   (= #b1 $e13) 

   ((_ extract 31 1) 

    (bvadd #b00000000000000000000000000000001 

     (bvnot |c:LeikeHeizmann-WST2014-Ex9.c@238@F@main@x?1!0&0#7|))) 

   ((_ extract 31 1) |c:LeikeHeizmann-WST2014-Ex9.c@238@F@main@x?1!0&0#7|))))

(define-fun $e15 () (_ BitVec 1) 

 ((_ extract 31 31) |c:LeikeHeizmann-WST2014-Ex9.c@238@F@main@x?1!0&0#8|))

(define-fun $e16 () (_ BitVec 32) 

 (concat #b0 

  (ite 

   (= #b1 $e15) 

   ((_ extract 31 1) 

    (bvadd #b00000000000000000000000000000001 

     (bvnot |c:LeikeHeizmann-WST2014-Ex9.c@238@F@main@x?1!0&0#8|))) 

   ((_ extract 31 1) |c:LeikeHeizmann-WST2014-Ex9.c@238@F@main@x?1!0&0#8|))))

(define-fun $e17 () (_ BitVec 1) 

 ((_ extract 31 31) |c:LeikeHeizmann-WST2014-Ex9.c@238@F@main@x?1!0&0#9|))

(define-fun $e18 () (_ BitVec 32) 

 (concat #b0 

  (ite 

   (= #b1 $e17) 

   ((_ extract 31 1) 

    (bvadd #b00000000000000000000000000000001 

     (bvnot |c:LeikeHeizmann-WST2014-Ex9.c@238@F@main@x?1!0&0#9|))) 

   ((_ extract 31 1) |c:LeikeHeizmann-WST2014-Ex9.c@238@F@main@x?1!0&0#9|))))

(define-fun $e19 () (_ BitVec 1) 

 ((_ extract 31 31) |c:LeikeHeizmann-WST2014-Ex9.c@238@F@main@x?1!0&0#10|))

(define-fun $e20 () (_ BitVec 32) 

 (concat #b0 

  (ite 

   (= #b1 $e19) 

   ((_ extract 31 1) 

    (bvadd #b00000000000000000000000000000001 

     (bvnot |c:LeikeHeizmann-WST2014-Ex9.c@238@F@main@x?1!0&0#10|))) 

   ((_ extract 31 1) |c:LeikeHeizmann-WST2014-Ex9.c@238@F@main@x?1!0&0#10|))))

(define-fun $e21 () (_ BitVec 1) 

 ((_ extract 31 31) |c:LeikeHeizmann-WST2014-Ex9.c@238@F@main@x?1!0&0#11|))

(define-fun $e22 () (_ BitVec 32) 

 (concat #b0 

  (ite 

   (= #b1 $e21) 

   ((_ extract 31 1) 

    (bvadd #b00000000000000000000000000000001 

     (bvnot |c:LeikeHeizmann-WST2014-Ex9.c@238@F@main@x?1!0&0#11|))) 

   ((_ extract 31 1) |c:LeikeHeizmann-WST2014-Ex9.c@238@F@main@x?1!0&0#11|))))

(define-fun $e23 () (_ BitVec 1) 

 ((_ extract 31 31) |c:LeikeHeizmann-WST2014-Ex9.c@238@F@main@x?1!0&0#12|))

(define-fun $e24 () (_ BitVec 32) 

 (concat #b0 

  (ite 

   (= #b1 $e23) 

   ((_ extract 31 1) 

    (bvadd #b00000000000000000000000000000001 

     (bvnot |c:LeikeHeizmann-WST2014-Ex9.c@238@F@main@x?1!0&0#12|))) 

   ((_ extract 31 1) |c:LeikeHeizmann-WST2014-Ex9.c@238@F@main@x?1!0&0#12|))))

(define-fun $e25 () (_ BitVec 1) 

 ((_ extract 31 31) |c:LeikeHeizmann-WST2014-Ex9.c@238@F@main@x?1!0&0#13|))

(define-fun $e26 () (_ BitVec 32) 

 (concat #b0 

  (ite 

   (= #b1 $e25) 

   ((_ extract 31 1) 

    (bvadd #b00000000000000000000000000000001 

     (bvnot |c:LeikeHeizmann-WST2014-Ex9.c@238@F@main@x?1!0&0#13|))) 

   ((_ extract 31 1) |c:LeikeHeizmann-WST2014-Ex9.c@238@F@main@x?1!0&0#13|))))

(define-fun $e27 () (_ BitVec 1) 

 ((_ extract 31 31) |c:LeikeHeizmann-WST2014-Ex9.c@238@F@main@x?1!0&0#14|))

(define-fun $e28 () (_ BitVec 32) 

 (concat #b0 

  (ite 

   (= #b1 $e27) 

   ((_ extract 31 1) 

    (bvadd #b00000000000000000000000000000001 

     (bvnot |c:LeikeHeizmann-WST2014-Ex9.c@238@F@main@x?1!0&0#14|))) 

   ((_ extract 31 1) |c:LeikeHeizmann-WST2014-Ex9.c@238@F@main@x?1!0&0#14|))))

(define-fun $e29 () (_ BitVec 1) 

 ((_ extract 31 31) |c:LeikeHeizmann-WST2014-Ex9.c@238@F@main@x?1!0&0#15|))

(define-fun $e30 () (_ BitVec 32) 

 (concat #b0 

  (ite 

   (= #b1 $e29) 

   ((_ extract 31 1) 

    (bvadd #b00000000000000000000000000000001 

     (bvnot |c:LeikeHeizmann-WST2014-Ex9.c@238@F@main@x?1!0&0#15|))) 

   ((_ extract 31 1) |c:LeikeHeizmann-WST2014-Ex9.c@238@F@main@x?1!0&0#15|))))

(define-fun $e31 () (_ BitVec 1) 

 ((_ extract 31 31) |c:LeikeHeizmann-WST2014-Ex9.c@238@F@main@x?1!0&0#16|))

(define-fun $e32 () (_ BitVec 32) 

 (concat #b0 

  (ite 

   (= #b1 $e31) 

   ((_ extract 31 1) 

    (bvadd #b00000000000000000000000000000001 

     (bvnot |c:LeikeHeizmann-WST2014-Ex9.c@238@F@main@x?1!0&0#16|))) 

   ((_ extract 31 1) |c:LeikeHeizmann-WST2014-Ex9.c@238@F@main@x?1!0&0#16|))))

(assert 

 (= __ESBMC_ptr_obj_start_0 #b0000000000000000000000000000000000000000000000000000000000000000))

(assert 

 (= #b0000000000000000000000000000000000000000000000000000000000000000 __ESBMC_ptr_obj_end_0))

(assert 

 (= __ESBMC_ptr_obj_start_1 #b0000000000000000000000000000000000000000000000000000000000000001))

(assert 

 (= #b1111111111111111111111111111111111111111111111111111111111111111 __ESBMC_ptr_obj_end_1))

(assert 

 (= __ESBMC_ptr_obj_end_0 |smt_conv::__ESBMC_ptr_addr_range_0..end0|))

(assert 

 (= __ESBMC_ptr_obj_start_0 |smt_conv::__ESBMC_ptr_addr_range_0..start0|))

(assert 

 (= __ESBMC_ptr_obj_end_1 |smt_conv::__ESBMC_ptr_addr_range_1..end0|))

(assert 

 (= __ESBMC_ptr_obj_start_1 |smt_conv::__ESBMC_ptr_addr_range_1..start0|))

(assert 

 (= |smt_conv::smt_conv::collate_array_vals::3..end0| |smt_conv::smt_conv::collate_array_vals::4..end0|))

(assert 

 (= |smt_conv::smt_conv::collate_array_vals::3..start0| |smt_conv::smt_conv::collate_array_vals::4..start0|))

(assert 

 (= __ESBMC_ptr_obj_end_0 |smt_conv::smt_conv::collate_array_vals::7..end0|))

(assert 

 (= __ESBMC_ptr_obj_start_0 |smt_conv::smt_conv::collate_array_vals::7..start0|))

(assert 

 (= |c:@F@main::$tmp::return_value$___VERIFIER_nondet_int$1?1!0&0#1| |nondet$symex::nondet16|))

(assert 

 (= |c:@F@main::$tmp::return_value$___VERIFIER_nondet_int$1?1!0&0#1| |c:LeikeHeizmann-WST2014-Ex9.c@238@F@main@x?1!0&0#1|))

(assert 

 (= |goto_symex::guard?0!0&0#1| 

  (ite 

   (bvslt #b00000000000000000000000000000000 |c:LeikeHeizmann-WST2014-Ex9.c@238@F@main@x?1!0&0#1|) #b1 #b0)))

(assert 

 (= |c:LeikeHeizmann-WST2014-Ex9.c@238@F@main@x?1!0&0#2| 

  (ite 

   (= #b1 $e1) 

   (bvadd #b00000000000000000000000000000001 

    (bvnot $e2)) $e2)))

(assert 

 (= |goto_symex::guard?0!0&0#2| 

  (ite 

   (bvslt #b00000000000000000000000000000000 |c:LeikeHeizmann-WST2014-Ex9.c@238@F@main@x?1!0&0#2|) #b1 #b0)))

(assert 

 (= |c:LeikeHeizmann-WST2014-Ex9.c@238@F@main@x?1!0&0#3| 

  (ite 

   (= #b1 $e3) 

   (bvadd #b00000000000000000000000000000001 

    (bvnot $e4)) $e4)))

(assert 

 (= |goto_symex::guard?0!0&0#3| 

  (ite 

   (bvslt #b00000000000000000000000000000000 |c:LeikeHeizmann-WST2014-Ex9.c@238@F@main@x?1!0&0#3|) #b1 #b0)))

(assert 

 (= |c:LeikeHeizmann-WST2014-Ex9.c@238@F@main@x?1!0&0#4| 

  (ite 

   (= #b1 $e5) 

   (bvadd #b00000000000000000000000000000001 

    (bvnot $e6)) $e6)))

(assert 

 (= |goto_symex::guard?0!0&0#4| 

  (ite 

   (bvslt #b00000000000000000000000000000000 |c:LeikeHeizmann-WST2014-Ex9.c@238@F@main@x?1!0&0#4|) #b1 #b0)))

(assert 

 (= |c:LeikeHeizmann-WST2014-Ex9.c@238@F@main@x?1!0&0#5| 

  (ite 

   (= #b1 $e7) 

   (bvadd #b00000000000000000000000000000001 

    (bvnot $e8)) $e8)))

(assert 

 (= |goto_symex::guard?0!0&0#5| 

  (ite 

   (bvslt #b00000000000000000000000000000000 |c:LeikeHeizmann-WST2014-Ex9.c@238@F@main@x?1!0&0#5|) #b1 #b0)))

(assert 

 (= |c:LeikeHeizmann-WST2014-Ex9.c@238@F@main@x?1!0&0#6| 

  (ite 

   (= #b1 $e9) 

   (bvadd #b00000000000000000000000000000001 

    (bvnot $e10)) $e10)))

(assert 

 (= |goto_symex::guard?0!0&0#6| 

  (ite 

   (bvslt #b00000000000000000000000000000000 |c:LeikeHeizmann-WST2014-Ex9.c@238@F@main@x?1!0&0#6|) #b1 #b0)))

(assert 

 (= |c:LeikeHeizmann-WST2014-Ex9.c@238@F@main@x?1!0&0#7| 

  (ite 

   (= #b1 $e11) 

   (bvadd #b00000000000000000000000000000001 

    (bvnot $e12)) $e12)))

(assert 

 (= |goto_symex::guard?0!0&0#7| 

  (ite 

   (bvslt #b00000000000000000000000000000000 |c:LeikeHeizmann-WST2014-Ex9.c@238@F@main@x?1!0&0#7|) #b1 #b0)))

(assert 

 (= |c:LeikeHeizmann-WST2014-Ex9.c@238@F@main@x?1!0&0#8| 

  (ite 

   (= #b1 $e13) 

   (bvadd #b00000000000000000000000000000001 

    (bvnot $e14)) $e14)))

(assert 

 (= |goto_symex::guard?0!0&0#8| 

  (ite 

   (bvslt #b00000000000000000000000000000000 |c:LeikeHeizmann-WST2014-Ex9.c@238@F@main@x?1!0&0#8|) #b1 #b0)))

(assert 

 (= |c:LeikeHeizmann-WST2014-Ex9.c@238@F@main@x?1!0&0#9| 

  (ite 

   (= #b1 $e15) 

   (bvadd #b00000000000000000000000000000001 

    (bvnot $e16)) $e16)))

(assert 

 (= |goto_symex::guard?0!0&0#9| 

  (ite 

   (bvslt #b00000000000000000000000000000000 |c:LeikeHeizmann-WST2014-Ex9.c@238@F@main@x?1!0&0#9|) #b1 #b0)))

(assert 

 (= |c:LeikeHeizmann-WST2014-Ex9.c@238@F@main@x?1!0&0#10| 

  (ite 

   (= #b1 $e17) 

   (bvadd #b00000000000000000000000000000001 

    (bvnot $e18)) $e18)))

(assert 

 (= |goto_symex::guard?0!0&0#10| 

  (ite 

   (bvslt #b00000000000000000000000000000000 |c:LeikeHeizmann-WST2014-Ex9.c@238@F@main@x?1!0&0#10|) #b1 #b0)))

(assert 

 (= |c:LeikeHeizmann-WST2014-Ex9.c@238@F@main@x?1!0&0#11| 

  (ite 

   (= #b1 $e19) 

   (bvadd #b00000000000000000000000000000001 

    (bvnot $e20)) $e20)))

(assert 

 (= |goto_symex::guard?0!0&0#11| 

  (ite 

   (bvslt #b00000000000000000000000000000000 |c:LeikeHeizmann-WST2014-Ex9.c@238@F@main@x?1!0&0#11|) #b1 #b0)))

(assert 

 (= |c:LeikeHeizmann-WST2014-Ex9.c@238@F@main@x?1!0&0#12| 

  (ite 

   (= #b1 $e21) 

   (bvadd #b00000000000000000000000000000001 

    (bvnot $e22)) $e22)))

(assert 

 (= |goto_symex::guard?0!0&0#12| 

  (ite 

   (bvslt #b00000000000000000000000000000000 |c:LeikeHeizmann-WST2014-Ex9.c@238@F@main@x?1!0&0#12|) #b1 #b0)))

(assert 

 (= |c:LeikeHeizmann-WST2014-Ex9.c@238@F@main@x?1!0&0#13| 

  (ite 

   (= #b1 $e23) 

   (bvadd #b00000000000000000000000000000001 

    (bvnot $e24)) $e24)))

(assert 

 (= |goto_symex::guard?0!0&0#13| 

  (ite 

   (bvslt #b00000000000000000000000000000000 |c:LeikeHeizmann-WST2014-Ex9.c@238@F@main@x?1!0&0#13|) #b1 #b0)))

(assert 

 (= |c:LeikeHeizmann-WST2014-Ex9.c@238@F@main@x?1!0&0#14| 

  (ite 

   (= #b1 $e25) 

   (bvadd #b00000000000000000000000000000001 

    (bvnot $e26)) $e26)))

(assert 

 (= |goto_symex::guard?0!0&0#14| 

  (ite 

   (bvslt #b00000000000000000000000000000000 |c:LeikeHeizmann-WST2014-Ex9.c@238@F@main@x?1!0&0#14|) #b1 #b0)))

(assert 

 (= |c:LeikeHeizmann-WST2014-Ex9.c@238@F@main@x?1!0&0#15| 

  (ite 

   (= #b1 $e27) 

   (bvadd #b00000000000000000000000000000001 

    (bvnot $e28)) $e28)))

(assert 

 (= |goto_symex::guard?0!0&0#15| 

  (ite 

   (bvslt #b00000000000000000000000000000000 |c:LeikeHeizmann-WST2014-Ex9.c@238@F@main@x?1!0&0#15|) #b1 #b0)))

(assert 

 (= |c:LeikeHeizmann-WST2014-Ex9.c@238@F@main@x?1!0&0#16| 

  (ite 

   (= #b1 $e29) 

   (bvadd #b00000000000000000000000000000001 

    (bvnot $e30)) $e30)))

(assert 

 (= |goto_symex::guard?0!0&0#16| 

  (ite 

   (bvslt #b00000000000000000000000000000000 |c:LeikeHeizmann-WST2014-Ex9.c@238@F@main@x?1!0&0#16|) #b1 #b0)))

(assert 

 (= |c:LeikeHeizmann-WST2014-Ex9.c@238@F@main@x?1!0&0#17| 

  (ite 

   (= #b1 $e31) 

   (bvadd #b00000000000000000000000000000001 

    (bvnot $e32)) $e32)))

(assert 

 (= |goto_symex::guard?0!0&0#17| 

  (ite 

   (bvslt #b00000000000000000000000000000000 |c:LeikeHeizmann-WST2014-Ex9.c@238@F@main@x?1!0&0#17|) #b1 #b0)))

(assert (= |execution_statet::guard_exec?0!0| #b1))

(assert (= |goto_symex::guard?0!0&0#17| #b1))

(assert (= |goto_symex::guard?0!0&0#16| #b1))

(assert (= |goto_symex::guard?0!0&0#15| #b1))

(assert (= |goto_symex::guard?0!0&0#14| #b1))

(assert (= |goto_symex::guard?0!0&0#13| #b1))

(assert (= |goto_symex::guard?0!0&0#12| #b1))

(assert (= |goto_symex::guard?0!0&0#11| #b1))

(assert (= |goto_symex::guard?0!0&0#10| #b1))

(assert (= |goto_symex::guard?0!0&0#9| #b1))

(assert (= |goto_symex::guard?0!0&0#8| #b1))

(assert (= |goto_symex::guard?0!0&0#7| #b1))

(assert (= |goto_symex::guard?0!0&0#6| #b1))

(assert (= |goto_symex::guard?0!0&0#5| #b1))

(assert (= |goto_symex::guard?0!0&0#4| #b1))

(assert (= |goto_symex::guard?0!0&0#3| #b1))

(assert (= |goto_symex::guard?0!0&0#2| #b1))

(assert (= |goto_symex::guard?0!0&0#1| #b1))

(check-sat)

(exit)
